n_res = 4;
rcap = [16, 14, 51, 55];
rtype = [1, 1, 2, 2];
n_tasks = 10;
modes = [ {1, 2, 3}, {4, 5, 6}, {7, 8, 9}, {10, 11, 12}, {13, 14, 15}, {16, 17, 18}, {19, 20, 21}, {22, 23, 24}, {25, 26, 27}, {28, 29, 30} ];
succ = [ {4, 10}, {4}, {6, 7, 8}, {5}, {8}, {9, 10}, {9, 10}, {}, {}, {} ];
n_opt = 30;
dur = [2, 3, 8, 1, 7, 10, 4, 4, 7, 2, 4, 8, 4, 5, 7, 5, 8, 8, 3, 10, 10, 1, 7, 9, 2, 4, 6, 2, 7, 10];
rreq = [|  4,  4,  3,  7,  7,  7,  7,  5,  5,  4,  4,  2,  7,  6,  3,  6,  6,  3, 10, 10,  9,  8,  6,  2,  6,  4,  3,  6,  6,  6
        |  5,  3,  3,  6,  4,  4,  9,  8,  6,  5,  3,  3,  6,  4,  3,  8,  5,  2,  4,  3,  4,  8,  8,  7,  5,  5,  2,  9,  8,  5
        |  6,  4,  1,  6,  5,  3,  8,  9,  6, 10, 10, 10,  4,  4,  3,  2,  1,  2, 10,  2,  6,  6,  4,  3,  9,  8,  8, 10,  9,  9
        |  6,  6,  4,  8,  7,  5,  8,  9,  7,  5,  3,  2,  8,  7,  5,  7,  4,  5, 10, 10, 10,  6,  4,  3,  6,  4,  4,  8,  7,  7 |];
